ilp_joint_2/output/decomposition_ilp.lp
Maximize
  0.00261731148625993 Z_99_1_0 + 0.0447944660931746 Z_99_1_1
   + 0.00332907858515885 Z_99_1_2 + 0.393345288574567 Z_99_1_3
   + 0.00212789610606712 Z_57_1_0 + 0.00300081436439664 Z_57_1_1
   + 0.3821716920416194 Z_57_1_2 + 0.0105944515866311 Z_57_1_3
   + 0.00183813626253349 Z_58_1_0 + 0.0797648129335118 Z_58_1_1
   + 0.00230931040240284 Z_58_1_2 + 0.432589572481559 Z_58_1_3 + [
   1.040033018460263 Z_99_1_0 * Z_58_1_0
   + 1.040033018460263 Z_99_1_1 * Z_58_1_1
   + 1.040033018460263 Z_99_1_2 * Z_58_1_2
   + 1.040033018460263 Z_99_1_3 * Z_58_1_3 ] / 2 
Subject To
 constraint1_991: Z_99_1_0 + Z_99_1_1 + Z_99_1_2 + Z_99_1_3 <= 1
 constraint1_571: Z_57_1_0 + Z_57_1_1 + Z_57_1_2 + Z_57_1_3 <= 1
 constraint1_581: Z_58_1_0 + Z_58_1_1 + Z_58_1_2 + Z_58_1_3 <= 1
 constraint2_990: Z_99_1_0 <= 1
 constraint2_991: Z_99_1_1 <= 1
 constraint2_992: Z_99_1_2 <= 1
 constraint2_993: Z_99_1_3 <= 1
 constraint2_570: Z_57_1_0 <= 1
 constraint2_571: Z_57_1_1 <= 1
 constraint2_572: Z_57_1_2 <= 1
 constraint2_573: Z_57_1_3 <= 1
 constraint2_580: Z_58_1_0 <= 1
 constraint2_581: Z_58_1_1 <= 1
 constraint2_582: Z_58_1_2 <= 1
 constraint2_583: Z_58_1_3 <= 1
Bounds
Binaries
 Z_99_1_0 Z_99_1_1 Z_99_1_2 Z_99_1_3 Z_57_1_0 Z_57_1_1 Z_57_1_2 Z_57_1_3
 Z_58_1_0 Z_58_1_1 Z_58_1_2 Z_58_1_3
End
