ilp_joint_2/output/decomposition_ilp.mps
NAME decomposition_srl_ilp
* Max problem is converted into Min one
ROWS
 N  OBJ
 L  constraint1_991
 L  constraint1_571
 L  constraint1_581
 L  constraint2_990
 L  constraint2_991
 L  constraint2_992
 L  constraint2_993
 L  constraint2_570
 L  constraint2_571
 L  constraint2_572
 L  constraint2_573
 L  constraint2_580
 L  constraint2_581
 L  constraint2_582
 L  constraint2_583
COLUMNS
    MARKER    'MARKER'                 'INTORG'
    Z_99_1_0  OBJ       -2.6173114862599323e-03
    Z_99_1_0  constraint1_991  1
    Z_99_1_0  constraint2_990  1
    Z_99_1_1  OBJ       -4.4794466093174612e-02
    Z_99_1_1  constraint1_991  1
    Z_99_1_1  constraint2_991  1
    Z_99_1_2  OBJ       -3.3290785851588511e-03
    Z_99_1_2  constraint1_991  1
    Z_99_1_2  constraint2_992  1
    Z_99_1_3  OBJ       -3.9334528857456696e-01
    Z_99_1_3  constraint1_991  1
    Z_99_1_3  constraint2_993  1
    Z_57_1_0  OBJ       -2.1278961060671175e-03
    Z_57_1_0  constraint1_571  1
    Z_57_1_0  constraint2_570  1
    Z_57_1_1  OBJ       -3.0008143643966423e-03
    Z_57_1_1  constraint1_571  1
    Z_57_1_1  constraint2_571  1
    Z_57_1_2  OBJ       -3.8217169204161944e-01
    Z_57_1_2  constraint1_571  1
    Z_57_1_2  constraint2_572  1
    Z_57_1_3  OBJ       -1.0594451586631087e-02
    Z_57_1_3  constraint1_571  1
    Z_57_1_3  constraint2_573  1
    Z_58_1_0  OBJ       -1.8381362625334852e-03
    Z_58_1_0  constraint1_581  1
    Z_58_1_0  constraint2_580  1
    Z_58_1_1  OBJ       -7.9764812933511842e-02
    Z_58_1_1  constraint1_581  1
    Z_58_1_1  constraint2_581  1
    Z_58_1_2  OBJ       -2.3093104024028421e-03
    Z_58_1_2  constraint1_581  1
    Z_58_1_2  constraint2_582  1
    Z_58_1_3  OBJ       -4.3258957248155899e-01
    Z_58_1_3  constraint1_581  1
    Z_58_1_3  constraint2_583  1
    MARKER    'MARKER'                 'INTEND'
RHS
    RHS1      constraint1_991  1
    RHS1      constraint1_571  1
    RHS1      constraint1_581  1
    RHS1      constraint2_990  1
    RHS1      constraint2_991  1
    RHS1      constraint2_992  1
    RHS1      constraint2_993  1
    RHS1      constraint2_570  1
    RHS1      constraint2_571  1
    RHS1      constraint2_572  1
    RHS1      constraint2_573  1
    RHS1      constraint2_580  1
    RHS1      constraint2_581  1
    RHS1      constraint2_582  1
    RHS1      constraint2_583  1
BOUNDS
 UP BND1      Z_99_1_0  1
 UP BND1      Z_99_1_1  1
 UP BND1      Z_99_1_2  1
 UP BND1      Z_99_1_3  1
 UP BND1      Z_57_1_0  1
 UP BND1      Z_57_1_1  1
 UP BND1      Z_57_1_2  1
 UP BND1      Z_57_1_3  1
 UP BND1      Z_58_1_0  1
 UP BND1      Z_58_1_1  1
 UP BND1      Z_58_1_2  1
 UP BND1      Z_58_1_3  1
QUADOBJ
    Z_99_1_0  Z_58_1_0  -5.2001650923013143e-01
    Z_99_1_1  Z_58_1_1  -5.2001650923013143e-01
    Z_99_1_2  Z_58_1_2  -5.2001650923013143e-01
    Z_99_1_3  Z_58_1_3  -5.2001650923013143e-01
ENDATA
