ilp_joint_2/output/decomposition_ilp.sol
# Solution for model decomposition_srl_ilp
# Objective value = 1.7281230623278767e+00
Z_99_1_0 0
Z_99_1_1 0
Z_99_1_2 0
Z_99_1_3 1
Z_57_1_0 0
Z_57_1_1 0
Z_57_1_2 1
Z_57_1_3 0
Z_58_1_0 0
Z_58_1_1 0
Z_58_1_2 0
Z_58_1_3 1
